proyfinal/src/viki/013/experimentInOfficeAgust.take6.output/405b4e3e-d499-437e-b5a6-bdcd1314b45b.als.dat
{'cnf.clauses': '118081',
 'cnf.totvars': '69608',
 'conflict literals': '89',
 'conflicts': '26',
 'decisions': '2561',
 'memused.mb': '14.65',
 'outcome': 'UNSAT',
 'propagations': '18888',
 'restarts': '1',
 'solver.msecs': 29,
 'task.msecs': 78}
