proyfinal/src/viki/013/experimentInOfficeAgust.take6.output/405b4e3e-d499-437e-b5a6-bdcd1314b45b.als.out
Reading from standard input... Use '--help' for help.
============================[ Problem Statistics ]=============================
|                                                                             |
|  Number of variables:         69608                                         |
|  Number of clauses:          118081                                         |
|  Parse time:                   0.02 s                                       |
|                                                                             |
============================[ Search Statistics ]==============================
| Conflicts |          ORIGINAL         |          LEARNT          | Progress |
|           |    Vars  Clauses Literals |    Limit  Clauses Lit/Cl |          |
===============================================================================
===============================================================================
restarts              : 1
conflicts             : 26             (895 /sec)
decisions             : 2561           (0.00 % random) (88170 /sec)
propagations          : 18888          (650279 /sec)
conflict literals     : 89             (0.00 % deleted)
Memory used           : 14.65 MB
CPU time              : 0.029046 s

UNSATISFIABLE
